ID    CANTBAR,STATIC
APP   DISPLACEMENT
SOL   1,0
TIME  2
CEND
TITLE = CANTILEVER BAR, TIP LOAD
SUBTITLE = NASTRAN-95 VS SIMCENTER NASTRAN CROSS-CHECK
SPC = 1
LOAD = 1
DISPLACEMENT = ALL
SPCFORCES = ALL
ELFORCE = ALL
BEGIN BULK
GRID    1               0.000   0.0     0.0
GRID    2               0.100   0.0     0.0
GRID    3               0.200   0.0     0.0
GRID    4               0.300   0.0     0.0
GRID    5               0.400   0.0     0.0
GRID    6               0.500   0.0     0.0
GRID    7               0.600   0.0     0.0
GRID    8               0.700   0.0     0.0
GRID    9               0.800   0.0     0.0
GRID    10              0.900   0.0     0.0
GRID    11              1.000   0.0     0.0
CBAR    1       1       1       2       0.0     0.0     1.0
CBAR    2       1       2       3       0.0     0.0     1.0
CBAR    3       1       3       4       0.0     0.0     1.0
CBAR    4       1       4       5       0.0     0.0     1.0
CBAR    5       1       5       6       0.0     0.0     1.0
CBAR    6       1       6       7       0.0     0.0     1.0
CBAR    7       1       7       8       0.0     0.0     1.0
CBAR    8       1       8       9       0.0     0.0     1.0
CBAR    9       1       9       10      0.0     0.0     1.0
CBAR    10      1       10      11      0.0     0.0     1.0
PBAR    1       1       4.0-4   1.0-8   2.0-8   1.5-8
MAT1    1       70.0+9          0.33    2700.0
SPC1    1       123456  1
FORCE   1       11              10.0    0.0     0.5     -1.0
MOMENT  1       11              2.0     1.0     0.0     0.0
ENDDATA
