ID    CANTBAR,MODES
APP   DISPLACEMENT
SOL   3,0
TIME  2
CEND
TITLE = CANTILEVER BAR, NORMAL MODES
SUBTITLE = NASTRAN-95 VS SIMCENTER NASTRAN CROSS-CHECK
SPC = 1
METHOD = 10
DISPLACEMENT = ALL
BEGIN BULK
GRID    1               0.000   0.0     0.0
GRID    2               0.100   0.0     0.0
GRID    3               0.200   0.0     0.0
GRID    4               0.300   0.0     0.0
GRID    5               0.400   0.0     0.0
GRID    6               0.500   0.0     0.0
GRID    7               0.600   0.0     0.0
GRID    8               0.700   0.0     0.0
GRID    9               0.800   0.0     0.0
GRID    10              0.900   0.0     0.0
GRID    11              1.000   0.0     0.0
CBAR    1       1       1       2       0.0     0.0     1.0
CBAR    2       1       2       3       0.0     0.0     1.0
CBAR    3       1       3       4       0.0     0.0     1.0
CBAR    4       1       4       5       0.0     0.0     1.0
CBAR    5       1       5       6       0.0     0.0     1.0
CBAR    6       1       6       7       0.0     0.0     1.0
CBAR    7       1       7       8       0.0     0.0     1.0
CBAR    8       1       8       9       0.0     0.0     1.0
CBAR    9       1       9       10      0.0     0.0     1.0
CBAR    10      1       10      11      0.0     0.0     1.0
PBAR    1       1       4.0-4   1.0-8   2.0-8   1.5-8
MAT1    1       70.0+9          0.33    2700.0
SPC1    1       123456  1
CONM2   102     2               0.0     0.0     0.0     0.0             +CM2
+CM2    4.05-6          2.7-6                   1.35-6
CONM2   103     3               0.0     0.0     0.0     0.0             +CM3
+CM3    4.05-6          2.7-6                   1.35-6
CONM2   104     4               0.0     0.0     0.0     0.0             +CM4
+CM4    4.05-6          2.7-6                   1.35-6
CONM2   105     5               0.0     0.0     0.0     0.0             +CM5
+CM5    4.05-6          2.7-6                   1.35-6
CONM2   106     6               0.0     0.0     0.0     0.0             +CM6
+CM6    4.05-6          2.7-6                   1.35-6
CONM2   107     7               0.0     0.0     0.0     0.0             +CM7
+CM7    4.05-6          2.7-6                   1.35-6
CONM2   108     8               0.0     0.0     0.0     0.0             +CM8
+CM8    4.05-6          2.7-6                   1.35-6
CONM2   109     9               0.0     0.0     0.0     0.0             +CM9
+CM9    4.05-6          2.7-6                   1.35-6
CONM2   110     10              0.0     0.0     0.0     0.0             +CM10
+CM10   4.05-6          2.7-6                   1.35-6
CONM2   111     11              0.05    0.0     0.0     0.0             +CM11
+CM11   4.05-6          2.7-6                   1.35-6
EIGR    10      GIV                             6                       +EIG1
+EIG1   MAX
ENDDATA
